50	1
0 93
0 44
0 58
0 55
0 47
0 46
0 49
0 9
0 22
0 84
0 82
0 21
0 10
0 83
0 79
0 71
0 87
0 86
0 42
0 18
0 29
0 83
0 83
0 28
0 36
0 86
0 53
0 69
0 52
0 21
0 88
0 73
0 83
0 47
0 40
0 14
0 48
0 22
0 52
0 47
0 25
0 59
0 8
0 84
0 57
0 39
0 14
0 8
0 6
0 92
